DIMACS2
80 400 261 427 159 24 88 423 128 378 66 226 221 469 562 577 559 75 444 151 516 336 277 294 496 229 381 322 162 595 489 283 597 434 306 45 186 506 387 429 507 554 571 366 217 251 467 446 248 524 287 308 492 71 33 12 235 55 7 27 63 638 304 440 494 152 230 30 183 89 499 623 338 419 452 130 603 569 321 621 39
p edge 640 2623
e 0 462 2.0
e 0 161 1.0
e 0 373 1.0
e 0 127 1.0
e 1 411 2.0
e 1 164 2.0
e 1 306 24.0
e 1 566 3.0
e 2 52 1.0
e 2 168 1.0
e 2 515 1.0
e 2 396 1.0
e 3 398 2.0
e 3 315 1.0
e 3 55 14.0
e 3 486 2.0
e 4 542 1.0
e 4 452 45.0
e 4 334 2.0
e 4 499 9.0
e 5 89 30.0
e 5 0 1.0
e 5 197 1.0
e 5 499 22.0
e 6 152 45.0
e 6 389 1.0
e 6 598 1.0
e 6 265 1.0
e 7 302 16.0
e 7 580 46.0
e 7 576 26.0
e 7 212 13.0
e 7 217 33.0
e 7 304 49.0
e 8 458 1.0
e 8 516 28.0
e 8 371 1.0
e 8 221 12.0
e 9 532 2.0
e 9 500 1.0
e 9 165 1.0
e 9 590 1.0
e 10 271 2.0
e 10 392 1.0
e 10 427 35.0
e 10 399 1.0
e 11 26 1.0
e 11 122 1.0
e 11 583 1.0
e 11 129 1.0
e 12 486 40.0
e 12 0 39.0
e 12 456 17.0
e 12 136 40.0
e 12 128 8.0
e 13 447 1.0
e 13 381 19.0
e 13 579 1.0
e 13 180 1.0
e 14 481 1.0
e 14 324 1.0
e 14 51 1.0
e 14 349 3.0
e 15 51 1.0
e 15 527 1.0
e 15 139 1.0
e 15 351 1.0
e 16 133 1.0
e 16 546 2.0
e 16 202 1.0
e 16 333 1.0
e 17 289 1.0
e 17 369 1.0
e 17 520 1.0
e 17 555 1.0
e 18 551 1.0
e 18 443 1.0
e 18 447 2.0
e 18 595 9.0
e 19 499 20.0
e 19 582 2.0
e 19 407 1.0
e 19 501 1.0
e 20 433 1.0
e 20 415 2.0
e 20 615 2.0
e 20 391 1.0
e 21 153 1.0
e 21 433 1.0
e 21 610 1.0
e 21 288 1.0
e 22 177 1.0
e 22 250 1.0
e 22 82 1.0
e 22 188 1.0
e 23 503 1.0
e 23 110 1.0
e 23 338 40.0
e 23 448 1.0
e 24 39 44.0
e 24 324 21.0
e 24 331 41.0
e 24 564 35.0
e 24 30 49.0
e 24 423 32.0
e 25 595 24.0
e 25 471 1.0
e 25 204 3.0
e 25 197 3.0
e 26 566 1.0
e 26 53 2.0
e 26 177 2.0
e 26 588 1.0
e 27 473 42.0
e 27 439 12.0
e 27 45 17.0
e 27 367 6.0
e 28 145 1.0
e 28 434 17.0
e 28 492 5.0
e 28 236 2.0
e 29 169 2.0
e 29 142 1.0
e 29 444 15.0
e 29 164 1.0
e 30 179 40.0
e 30 100 15.0
e 30 93 18.0
e 30 455 10.0
e 31 460 1.0
e 31 138 1.0
e 31 245 1.0
e 31 232 1.0
e 32 339 1.0
e 32 572 1.0
e 32 568 1.0
e 32 541 2.0
e 33 469 1.0
e 33 339 2.0
e 33 381 17.0
e 33 170 47.0
e 33 128 22.0
e 33 277 29.0
e 33 554 17.0
e 34 195 2.0
e 34 193 1.0
e 34 170 2.0
e 34 419 12.0
e 35 502 3.0
e 35 107 1.0
e 35 608 1.0
e 35 539 1.0
e 36 424 1.0
e 36 168 2.0
e 36 392 1.0
e 36 463 1.0
e 37 132 1.0
e 37 186 10.0
e 37 36 1.0
e 37 490 1.0
e 38 522 1.0
e 38 589 1.0
e 38 198 2.0
e 38 216 1.0
e 39 95 14.0
e 39 108 27.0
e 39 183 10.0
e 39 0 48.0
e 40 58 1.0
e 40 125 2.0
e 40 565 1.0
e 40 618 1.0
e 41 286 1.0
e 41 75 36.0
e 41 83 1.0
e 41 361 2.0
e 42 394 1.0
e 42 77 1.0
e 42 346 3.0
e 42 194 2.0
e 43 476 1.0
e 43 384 1.0
e 43 189 1.0
e 43 121 1.0
e 44 236 1.0
e 44 170 2.0
e 44 249 1.0
e 44 465 1.0
e 45 151 3.0
e 45 243 14.0
e 45 606 12.0
e 45 184 25.0
e 45 24 38.0
e 45 378 26.0
e 46 151 6.0
e 46 329 1.0
e 46 42 2.0
e 46 426 1.0
e 47 471 2.0
e 47 217 10.0
e 47 376 1.0
e 47 86 1.0
e 48 253 1.0
e 48 215 1.0
e 48 392 1.0
e 48 227 1.0
e 49 163 1.0
e 49 573 2.0
e 49 198 1.0
e 49 638 14.0
e 50 447 1.0
e 50 188 1.0
e 50 253 1.0
e 50 395 1.0
e 51 180 1.0
e 51 129 1.0
e 51 388 1.0
e 51 253 1.0
e 52 224 1.0
e 52 552 1.0
e 52 444 5.0
e 52 577 2.0
e 53 108 1.0
e 53 153 1.0
e 53 512 1.0
e 53 492 45.0
e 54 55 6.0
e 54 283 23.0
e 54 265 1.0
e 54 616 1.0
e 55 322 21.0
e 55 518 22.0
e 55 249 13.0
e 55 511 11.0
e 56 379 1.0
e 56 540 1.0
e 56 140 2.0
e 56 36 2.0
e 57 367 1.0
e 57 380 1.0
e 57 551 2.0
e 57 364 1.0
e 58 88 16.0
e 58 3 2.0
e 58 298 2.0
e 58 232 2.0
e 59 216 1.0
e 59 610 1.0
e 59 14 2.0
e 59 90 2.0
e 60 505 1.0
e 60 584 1.0
e 60 567 1.0
e 60 389 1.0
e 61 365 1.0
e 61 193 2.0
e 61 631 1.0
e 61 141 1.0
e 62 281 2.0
e 62 100 1.0
e 62 617 1.0
e 62 277 15.0
e 63 630 4.0
e 63 437 26.0
e 63 540 49.0
e 63 98 44.0
e 63 251 3.0
e 64 176 1.0
e 64 265 1.0
e 64 342 1.0
e 64 360 2.0
e 65 187 1.0
e 65 39 24.0
e 65 380 1.0
e 65 222 1.0
e 66 71 23.0
e 66 130 20.0
e 66 79 35.0
e 66 119 2.0
e 66 321 29.0
e 67 344 1.0
e 67 35 2.0
e 67 275 1.0
e 67 355 1.0
e 68 514 2.0
e 68 197 1.0
e 68 401 1.0
e 68 217 7.0
e 69 224 1.0
e 69 237 1.0
e 69 252 2.0
e 69 261 39.0
e 70 153 1.0
e 70 549 1.0
e 70 5 1.0
e 70 34 2.0
e 71 242 29.0
e 71 588 19.0
e 71 517 2.0
e 71 562 3.0
e 72 125 1.0
e 72 21 1.0
e 72 626 1.0
e 72 403 1.0
e 73 36 1.0
e 73 93 1.0
e 73 118 3.0
e 73 268 1.0
e 74 533 1.0
e 74 387 43.0
e 74 582 1.0
e 74 265 1.0
e 75 301 4.0
e 75 324 2.0
e 75 80 11.0
e 75 102 16.0
e 76 53 2.0
e 76 303 1.0
e 76 348 2.0
e 76 419 46.0
e 77 104 1.0
e 77 311 1.0
e 77 306 31.0
e 77 541 1.0
e 78 110 1.0
e 78 209 1.0
e 78 338 4.0
e 78 69 1.0
e 79 533 1.0
e 79 351 1.0
e 79 228 2.0
e 79 16 1.0
e 80 308 41.0
e 80 593 2.0
e 80 628 1.0
e 80 239 2.0
e 81 38 1.0
e 81 592 1.0
e 81 543 1.0
e 81 429 4.0
e 82 326 1.0
e 82 119 1.0
e 82 470 1.0
e 82 180 1.0
e 83 461 1.0
e 83 199 1.0
e 83 155 1.0
e 83 626 2.0
e 84 435 3.0
e 84 51 1.0
e 84 355 2.0
e 84 418 1.0
e 85 11 1.0
e 85 157 1.0
e 85 145 1.0
e 85 196 1.0
e 86 1 1.0
e 86 608 1.0
e 86 436 1.0
e 86 404 2.0
e 87 547 2.0
e 87 265 3.0
e 87 288 1.0
e 87 116 2.0
e 88 190 30.0
e 88 579 10.0
e 88 543 10.0
e 88 491 43.0
e 89 195 5.0
e 89 489 45.0
e 89 215 10.0
e 89 236 43.0
e 90 32 1.0
e 90 615 2.0
e 90 201 1.0
e 90 79 2.0
e 91 441 2.0
e 91 218 3.0
e 91 613 2.0
e 91 314 1.0
e 92 358 1.0
e 92 125 2.0
e 92 311 1.0
e 92 207 2.0
e 93 359 1.0
e 93 233 1.0
e 93 221 29.0
e 93 21 1.0
e 94 358 2.0
e 94 570 2.0
e 94 65 1.0
e 94 139 1.0
e 95 153 1.0
e 95 597 39.0
e 95 13 1.0
e 95 599 1.0
e 96 574 2.0
e 96 586 1.0
e 96 330 1.0
e 96 281 2.0
e 97 372 2.0
e 97 395 1.0
e 97 225 1.0
e 97 58 1.0
e 98 520 1.0
e 98 43 1.0
e 98 484 2.0
e 99 585 1.0
e 99 139 1.0
e 99 514 2.0
e 99 632 2.0
e 100 326 1.0
e 100 283 16.0
e 100 75 21.0
e 100 492 22.0
e 101 512 1.0
e 101 174 1.0
e 101 278 2.0
e 101 550 1.0
e 102 371 1.0
e 102 620 1.0
e 102 272 1.0
e 102 532 1.0
e 103 273 1.0
e 103 327 1.0
e 103 579 1.0
e 103 281 1.0
e 104 12 32.0
e 104 630 1.0
e 104 509 2.0
e 104 452 20.0
e 105 152 48.0
e 105 244 1.0
e 105 576 1.0
e 105 333 1.0
e 106 389 1.0
e 106 300 2.0
e 106 103 1.0
e 106 32 1.0
e 107 632 1.0
e 107 3 2.0
e 107 249 1.0
e 107 481 1.0
e 108 473 2.0
e 108 252 1.0
e 108 33 25.0
e 108 419 26.0
e 109 463 2.0
e 109 538 2.0
e 109 186 18.0
e 109 534 2.0
e 110 59 2.0
e 110 381 29.0
e 110 169 1.0
e 110 471 1.0
e 111 177 1.0
e 111 494 6.0
e 111 292 1.0
e 111 242 1.0
e 112 180 2.0
e 112 88 38.0
e 112 483 2.0
e 112 18 1.0
e 113 233 1.0
e 113 570 2.0
e 113 17 1.0
e 113 611 1.0
e 114 438 1.0
e 114 179 1.0
e 114 320 1.0
e 114 266 1.0
e 115 36 1.0
e 115 199 1.0
e 115 19 1.0
e 115 220 1.0
e 116 123 1.0
e 116 25 1.0
e 116 188 1.0
e 116 169 1.0
e 117 32 2.0
e 117 631 2.0
e 117 165 1.0
e 117 519 1.0
e 118 130 18.0
e 118 627 2.0
e 118 409 1.0
e 118 198 1.0
e 119 603 43.0
e 119 318 1.0
e 119 498 1.0
e 119 209 1.0
e 120 91 1.0
e 120 83 1.0
e 120 630 1.0
e 120 27 26.0
e 121 479 1.0
e 121 53 1.0
e 121 282 1.0
e 121 179 1.0
e 122 409 1.0
e 122 62 1.0
e 122 331 1.0
e 122 184 1.0
e 123 159 22.0
e 123 44 1.0
e 123 366 28.0
e 123 261 39.0
e 124 505 3.0
e 124 294 30.0
e 124 262 1.0
e 124 167 1.0
e 125 537 1.0
e 125 342 2.0
e 125 216 1.0
e 125 566 2.0
e 126 307 1.0
e 126 190 1.0
e 126 282 1.0
e 126 296 1.0
e 127 422 1.0
e 127 429 24.0
e 127 283 30.0
e 127 440 6.0
e 128 38 4.0
e 128 610 31.0
e 128 209 9.0
e 128 152 45.0
e 129 574 2.0
e 129 197 1.0
e 129 624 1.0
e 129 520 1.0
e 130 345 32.0
e 130 367 19.0
e 130 90 6.0
e 130 65 45.0
e 131 159 42.0
e 131 168 1.0
e 131 413 1.0
e 131 166 2.0
e 132 466 1.0
e 132 5 1.0
e 132 152 3.0
e 132 88 4.0
e 133 604 2.0
e 133 397 1.0
e 133 628 1.0
e 133 179 2.0
e 134 630 1.0
e 134 192 1.0
e 134 57 1.0
e 134 141 1.0
e 135 97 1.0
e 135 344 1.0
e 135 384 1.0
e 135 182 1.0
e 136 229 16.0
e 136 300 2.0
e 136 158 2.0
e 136 236 1.0
e 137 628 1.0
e 137 392 1.0
e 137 238 1.0
e 137 195 1.0
e 138 149 1.0
e 138 571 15.0
e 138 511 1.0
e 138 159 36.0
e 139 185 1.0
e 139 67 1.0
e 139 11 1.0
e 139 618 1.0
e 140 628 1.0
e 140 106 1.0
e 140 372 1.0
e 140 338 45.0
e 141 66 22.0
e 141 208 1.0
e 141 335 1.0
e 141 241 1.0
e 142 46 1.0
e 142 99 2.0
e 142 328 1.0
e 142 257 1.0
e 143 188 1.0
e 143 622 1.0
e 143 616 1.0
e 143 466 1.0
e 144 314 1.0
e 144 3 1.0
e 144 198 1.0
e 144 213 1.0
e 145 102 1.0
e 145 512 1.0
e 145 537 1.0
e 145 313 1.0
e 146 267 1.0
e 146 269 1.0
e 146 561 1.0
e 146 457 1.0
e 147 104 1.0
e 147 143 1.0
e 147 611 1.0
e 147 606 1.0
e 148 428 1.0
e 148 258 1.0
e 148 75 15.0
e 148 186 37.0
e 149 352 1.0
e 149 615 1.0
e 149 331 1.0
e 149 561 1.0
e 150 141 2.0
e 150 373 1.0
e 150 376 1.0
e 150 353 1.0
e 151 432 8.0
e 151 173 4.0
e 151 302 12.0
e 151 282 11.0
e 151 595 47.0
e 152 81 40.0
e 152 517 20.0
e 152 391 5.0
e 152 422 45.0
e 153 75 6.0
e 153 190 1.0
e 153 440 39.0
e 153 507 2.0
e 154 293 1.0
e 154 461 2.0
e 154 125 2.0
e 154 54 1.0
e 155 604 1.0
e 155 369 2.0
e 155 463 1.0
e 155 300 2.0
e 156 510 2.0
e 156 4 1.0
e 156 259 1.0
e 156 119 1.0
e 157 450 1.0
e 157 111 1.0
e 157 280 1.0
e 157 525 1.0
e 158 404 1.0
e 158 510 2.0
e 158 466 1.0
e 158 352 1.0
e 159 90 37.0
e 159 255 12.0
e 159 154 20.0
e 159 192 19.0
e 159 27 29.0
e 160 229 38.0
e 160 394 1.0
e 160 467 4.0
e 160 563 1.0
e 161 342 1.0
e 161 73 1.0
e 161 373 1.0
e 161 564 1.0
e 162 300 43.0
e 162 53 30.0
e 162 615 3.0
e 162 380 34.0
e 162 251 27.0
e 162 427 20.0
e 162 304 30.0
e 163 69 2.0
e 163 214 1.0
e 163 157 1.0
e 163 272 1.0
e 164 284 1.0
e 164 367 1.0
e 164 378 41.0
e 164 318 1.0
e 165 250 1.0
e 165 87 1.0
e 165 25 1.0
e 165 191 1.0
e 166 294 2.0
e 166 601 1.0
e 166 390 1.0
e 166 502 1.0
e 167 625 1.0
e 167 408 1.0
e 167 145 1.0
e 167 188 1.0
e 168 495 1.0
e 168 222 1.0
e 168 511 1.0
e 168 142 1.0
e 169 202 2.0
e 169 370 2.0
e 169 508 1.0
e 169 459 1.0
e 170 348 2.0
e 170 213 2.0
e 170 35 3.0
e 170 345 1.0
e 171 73 1.0
e 171 12 6.0
e 171 135 3.0
e 171 588 2.0
e 172 23 1.0
e 172 59 2.0
e 172 429 16.0
e 172 139 3.0
e 173 158 2.0
e 173 331 1.0
e 173 106 1.0
e 173 431 1.0
e 174 368 1.0
e 174 481 1.0
e 174 422 1.0
e 174 602 2.0
e 175 355 1.0
e 175 596 1.0
e 175 74 1.0
e 175 137 1.0
e 176 31 1.0
e 176 611 1.0
e 176 46 2.0
e 176 472 1.0
e 177 9 1.0
e 177 316 1.0
e 177 36 1.0
e 177 559 22.0
e 178 586 1.0
e 178 122 1.0
e 178 230 15.0
e 178 189 2.0
e 179 234 2.0
e 179 72 2.0
e 179 351 2.0
e 179 220 2.0
e 180 631 1.0
e 180 409 1.0
e 180 103 1.0
e 180 457 1.0
e 181 499 41.0
e 181 537 1.0
e 181 509 1.0
e 181 533 1.0
e 182 85 3.0
e 182 298 1.0
e 182 634 2.0
e 182 32 1.0
e 183 303 4.0
e 183 36 26.0
e 183 357 11.0
e 183 252 2.0
e 183 159 18.0
e 183 516 49.0
e 183 554 5.0
e 184 360 2.0
e 184 167 1.0
e 184 73 1.0
e 184 339 1.0
e 185 97 2.0
e 185 132 2.0
e 185 148 1.0
e 185 267 1.0
e 186 450 18.0
e 186 590 9.0
e 186 574 21.0
e 186 498 49.0
e 187 595 5.0
e 187 412 1.0
e 187 294 1.0
e 187 423 44.0
e 188 548 1.0
e 188 507 41.0
e 188 389 2.0
e 188 437 3.0
e 189 199 1.0
e 189 321 40.0
e 189 229 41.0
e 189 330 1.0
e 190 58 2.0
e 190 452 20.0
e 190 87 1.0
e 190 600 1.0
e 191 117 1.0
e 191 327 1.0
e 191 583 1.0
e 192 368 1.0
e 192 45 17.0
e 192 25 2.0
e 192 554 48.0
e 193 153 2.0
e 193 466 2.0
e 193 30 35.0
e 193 114 2.0
e 194 96 1.0
e 194 365 1.0
e 194 70 1.0
e 194 52 1.0
e 195 120 1.0
e 195 125 1.0
e 195 570 1.0
e 195 39 21.0
e 196 280 1.0
e 196 146 1.0
e 196 417 2.0
e 196 566 1.0
e 197 341 1.0
e 197 206 2.0
e 197 77 1.0
e 197 231 1.0
e 198 82 1.0
e 198 455 1.0
e 198 90 1.0
e 198 359 1.0
e 199 448 1.0
e 199 77 1.0
e 199 560 1.0
e 199 266 1.0
e 200 329 1.0
e 200 198 1.0
e 200 488 2.0
e 200 83 2.0
e 201 565 1.0
e 201 211 1.0
e 201 498 2.0
e 201 308 11.0
e 202 47 2.0
e 202 179 1.0
e 202 318 1.0
e 202 601 3.0
e 203 251 26.0
e 203 385 2.0
e 203 20 2.0
e 203 525 1.0
e 204 288 1.0
e 204 563 1.0
e 204 296 1.0
e 204 370 1.0
e 205 360 3.0
e 205 106 1.0
e 205 488 1.0
e 205 575 2.0
e 206 468 3.0
e 206 235 29.0
e 206 334 1.0
e 206 285 1.0
e 207 345 1.0
e 207 484 1.0
e 207 357 1.0
e 207 3 2.0
e 208 549 1.0
e 208 167 1.0
e 208 562 49.0
e 208 482 2.0
e 209 363 1.0
e 209 559 40.0
e 209 427 40.0
e 209 449 1.0
e 210 334 1.0
e 210 434 6.0
e 210 60 1.0
e 211 184 1.0
e 211 59 1.0
e 211 375 1.0
e 211 1 1.0
e 212 246 1.0
e 212 38 1.0
e 212 157 1.0
e 212 120 2.0
e 213 224 1.0
e 213 307 1.0
e 213 529 1.0
e 213 14 1.0
e 214 488 1.0
e 214 79 1.0
e 214 478 1.0
e 214 3 2.0
e 215 302 1.0
e 215 54 1.0
e 215 209 1.0
e 215 66 13.0
e 216 88 9.0
e 216 396 1.0
e 216 75 35.0
e 216 434 11.0
e 217 582 10.0
e 217 411 28.0
e 217 380 12.0
e 217 273 27.0
e 217 33 29.0
e 218 394 2.0
e 218 254 1.0
e 218 150 1.0
e 218 128 45.0
e 219 456 3.0
e 219 431 2.0
e 219 2 1.0
e 219 342 1.0
e 220 377 1.0
e 220 327 1.0
e 220 563 1.0
e 220 208 1.0
e 221 23 37.0
e 221 215 48.0
e 221 545 27.0
e 221 394 6.0
e 222 139 1.0
e 222 42 1.0
e 222 620 1.0
e 222 93 1.0
e 223 226 19.0
e 223 256 1.0
e 223 197 1.0
e 223 353 1.0
e 224 485 1.0
e 224 592 2.0
e 224 173 1.0
e 224 562 44.0
e 225 305 1.0
e 225 320 1.0
e 225 300 2.0
e 225 508 2.0
e 226 370 5.0
e 226 316 39.0
e 226 249 36.0
e 226 400 16.0
e 226 151 42.0
e 227 428 1.0
e 227 340 2.0
e 227 377 2.0
e 227 464 1.0
e 228 44 1.0
e 228 189 1.0
e 228 319 1.0
e 228 567 1.0
e 229 351 25.0
e 229 142 1.0
e 229 418 39.0
e 229 352 25.0
e 230 571 22.0
e 230 201 36.0
e 230 190 42.0
e 230 564 38.0
e 230 562 8.0
e 230 440 16.0
e 231 133 1.0
e 231 43 1.0
e 231 239 1.0
e 231 548 1.0
e 232 354 1.0
e 232 154 1.0
e 232 193 1.0
e 232 524 45.0
e 233 515 1.0
e 233 625 1.0
e 233 222 1.0
e 233 23 1.0
e 234 346 1.0
e 234 201 1.0
e 234 418 3.0
e 234 428 1.0
e 235 429 36.0
e 235 528 15.0
e 235 465 44.0
e 235 359 16.0
e 235 499 14.0
e 236 341 2.0
e 236 393 2.0
e 236 485 1.0
e 236 158 2.0
e 237 452 2.0
e 237 220 1.0
e 237 309 1.0
e 237 626 1.0
e 238 259 1.0
e 238 282 2.0
e 238 464 1.0
e 238 337 1.0
e 239 499 40.0
e 239 584 1.0
e 239 313 2.0
e 239 330 1.0
e 240 174 2.0
e 240 582 1.0
e 240 584 1.0
e 240 2 1.0
e 241 325 2.0
e 241 455 2.0
e 241 66 44.0
e 241 122 2.0
e 242 73 1.0
e 242 615 1.0
e 242 272 1.0
e 242 146 1.0
e 243 80 1.0
e 243 42 2.0
e 243 184 2.0
e 243 97 1.0
e 244 374 1.0
e 244 18 1.0
e 244 38 1.0
e 244 321 6.0
e 245 443 1.0
e 245 627 1.0
e 245 280 1.0
e 245 343 2.0
e 246 605 1.0
e 246 575 2.0
e 246 582 3.0
e 246 290 1.0
e 247 250 2.0
e 247 218 2.0
e 247 263 1.0
e 247 308 35.0
e 248 512 8.0
e 248 9 15.0
e 248 93 32.0
e 248 468 25.0
e 248 597 1.0
e 248 7 27.0
e 248 230 43.0
e 248 623 48.0
e 249 584 1.0
e 249 136 1.0
e 249 427 2.0
e 249 370 1.0
e 250 3 1.0
e 250 405 1.0
e 250 259 1.0
e 250 469 18.0
e 251 191 43.0
e 251 202 20.0
e 251 530 7.0
e 251 542 4.0
e 252 374 1.0
e 252 571 19.0
e 252 476 2.0
e 252 520 1.0
e 253 307 1.0
e 253 574 2.0
e 253 20 2.0
e 253 472 1.0
e 254 534 1.0
e 254 501 1.0
e 254 565 1.0
e 254 200 2.0
e 255 46 2.0
e 255 370 1.0
e 255 387 37.0
e 255 282 2.0
e 256 216 1.0
e 256 569 43.0
e 256 370 1.0
e 256 419 39.0
e 257 218 1.0
e 257 545 1.0
e 257 273 2.0
e 257 389 2.0
e 258 529 1.0
e 258 92 1.0
e 258 86 1.0
e 258 353 2.0
e 259 369 1.0
e 259 254 1.0
e 259 279 1.0
e 259 212 1.0
e 260 234 1.0
e 260 41 2.0
e 260 330 2.0
e 260 73 1.0
e 261 398 35.0
e 261 158 37.0
e 261 394 1.0
e 261 532 16.0
e 261 496 27.0
e 261 434 25.0
e 262 157 1.0
e 262 112 2.0
e 262 383 2.0
e 262 57 1.0
e 263 565 1.0
e 263 574 2.0
e 263 420 1.0
e 263 500 1.0
e 264 269 1.0
e 264 489 23.0
e 264 551 2.0
e 264 628 2.0
e 265 38 1.0
e 265 28 1.0
e 265 288 1.0
e 265 210 1.0
e 266 349 1.0
e 266 380 1.0
e 266 392 1.0
e 266 600 1.0
e 267 478 1.0
e 267 326 1.0
e 267 132 1.0
e 267 523 1.0
e 268 318 1.0
e 268 60 1.0
e 268 279 1.0
e 268 286 1.0
e 269 549 1.0
e 269 158 3.0
e 269 236 1.0
e 269 448 1.0
e 270 80 1.0
e 270 233 1.0
e 270 555 1.0
e 270 300 2.0
e 271 608 1.0
e 271 544 1.0
e 271 292 1.0
e 271 531 1.0
e 272 227 1.0
e 272 398 1.0
e 272 446 42.0
e 272 578 1.0
e 273 197 1.0
e 273 493 2.0
e 273 472 1.0
e 273 574 1.0
e 274 612 1.0
e 274 56 1.0
e 274 210 1.0
e 274 11 1.0
e 275 3 1.0
e 275 353 1.0
e 275 144 1.0
e 275 423 19.0
e 276 149 1.0
e 276 80 1.0
e 276 160 1.0
e 276 72 1.0
e 277 505 10.0
e 277 136 35.0
e 277 362 23.0
e 277 613 19.0
e 278 26 2.0
e 278 160 1.0
e 278 615 1.0
e 278 225 1.0
e 279 606 1.0
e 279 387 10.0
e 279 489 41.0
e 279 295 3.0
e 280 488 1.0
e 280 474 1.0
e 280 458 1.0
e 280 515 1.0
e 281 178 1.0
e 281 574 1.0
e 281 105 1.0
e 281 232 2.0
e 282 328 3.0
e 282 377 1.0
e 282 609 1.0
e 282 299 1.0
e 283 169 2.0
e 283 185 17.0
e 283 484 46.0
e 283 231 34.0
e 284 291 1.0
e 284 3 1.0
e 284 476 2.0
e 284 299 1.0
e 285 233 1.0
e 285 129 1.0
e 285 364 1.0
e 285 408 1.0
e 286 495 1.0
e 286 29 2.0
e 286 307 1.0
e 286 138 1.0
e 287 100 41.0
e 287 188 35.0
e 287 611 26.0
e 287 629 42.0
e 287 128 28.0
e 287 162 47.0
e 287 603 10.0
e 288 356 1.0
e 288 116 1.0
e 288 70 2.0
e 288 89 48.0
e 289 25 1.0
e 289 335 1.0
e 289 186 47.0
e 289 40 2.0
e 290 498 1.0
e 290 78 1.0
e 290 185 2.0
e 290 53 1.0
e 291 224 2.0
e 291 230 19.0
e 291 598 1.0
e 291 155 1.0
e 292 557 1.0
e 292 498 2.0
e 292 364 1.0
e 292 500 1.0
e 293 105 2.0
e 293 380 2.0
e 293 422 2.0
e 293 423 10.0
e 294 77 37.0
e 294 370 38.0
e 294 284 48.0
e 294 324 1.0
e 295 542 1.0
e 295 217 35.0
e 295 6 3.0
e 295 3 2.0
e 296 186 20.0
e 296 236 2.0
e 296 633 1.0
e 296 142 1.0
e 297 434 44.0
e 297 82 1.0
e 297 104 1.0
e 297 596 1.0
e 298 41 1.0
e 298 614 2.0
e 298 570 2.0
e 298 483 2.0
e 299 577 13.0
e 299 458 1.0
e 299 332 1.0
e 299 169 1.0
e 300 309 1.0
e 300 376 1.0
e 300 425 1.0
e 300 311 2.0
e 301 133 1.0
e 301 99 2.0
e 301 21 2.0
e 301 123 1.0
e 302 280 1.0
e 302 31 1.0
e 302 606 1.0
e 302 470 1.0
e 303 424 1.0
e 303 407 1.0
e 303 341 1.0
e 303 604 1.0
e 304 612 33.0
e 304 313 4.0
e 304 518 3.0
e 304 78 42.0
e 305 170 1.0
e 305 221 44.0
e 305 70 2.0
e 305 82 1.0
e 306 622 48.0
e 306 100 2.0
e 306 506 46.0
e 306 221 2.0
e 306 287 1.0
e 307 108 1.0
e 307 210 1.0
e 307 279 1.0
e 307 53 1.0
e 308 23 13.0
e 308 407 49.0
e 308 0 18.0
e 308 484 5.0
e 308 306 2.0
e 309 537 1.0
e 309 275 1.0
e 309 575 1.0
e 309 203 2.0
e 310 539 1.0
e 310 147 1.0
e 310 113 1.0
e 310 196 1.0
e 311 10 1.0
e 311 178 1.0
e 311 389 1.0
e 311 1 1.0
e 312 12 14.0
e 312 265 2.0
e 312 142 1.0
e 312 114 2.0
e 313 197 2.0
e 313 47 3.0
e 313 263 2.0
e 313 629 1.0
e 314 558 1.0
e 314 597 18.0
e 314 213 1.0
e 314 155 1.0
e 315 54 1.0
e 315 283 26.0
e 315 159 32.0
e 315 500 1.0
e 316 189 1.0
e 316 535 2.0
e 316 590 1.0
e 316 131 1.0
e 317 358 2.0
e 317 607 1.0
e 317 31 1.0
e 317 320 1.0
e 318 373 1.0
e 318 454 1.0
e 318 76 1.0
e 318 582 1.0
e 319 597 37.0
e 319 3 1.0
e 319 336 44.0
e 319 24 12.0
e 320 6 2.0
e 320 451 1.0
e 320 171 1.0
e 320 489 4.0
e 321 568 38.0
e 321 327 49.0
e 321 234 34.0
e 321 376 41.0
e 321 400 39.0
e 321 378 2.0
e 322 344 49.0
e 322 439 28.0
e 322 68 41.0
e 322 154 18.0
e 322 569 19.0
e 323 523 1.0
e 323 539 1.0
e 323 168 1.0
e 323 113 1.0
e 324 568 1.0
e 324 268 1.0
e 324 79 1.0
e 324 213 1.0
e 325 422 1.0
e 325 472 1.0
e 325 250 2.0
e 325 490 1.0
e 326 478 1.0
e 326 457 1.0
e 326 331 1.0
e 326 324 1.0
e 327 48 1.0
e 327 396 1.0
e 327 306 22.0
e 327 482 1.0
e 328 69 3.0
e 328 287 5.0
e 328 292 1.0
e 328 250 2.0
e 329 558 1.0
e 329 526 1.0
e 329 607 1.0
e 329 247 1.0
e 330 365 1.0
e 330 270 3.0
e 330 268 3.0
e 330 630 1.0
e 331 12 2.0
e 331 242 1.0
e 331 635 1.0
e 331 493 1.0
e 332 75 17.0
e 332 28 3.0
e 332 206 2.0
e 332 605 1.0
e 333 603 14.0
e 333 127 1.0
e 333 134 1.0
e 333 247 1.0
e 334 389 1.0
e 334 341 1.0
e 334 322 6.0
e 334 199 1.0
e 335 103 1.0
e 335 631 1.0
e 335 464 1.0
e 335 529 1.0
e 336 353 26.0
e 336 477 42.0
e 336 378 37.0
e 336 306 20.0
e 336 494 19.0
e 336 183 35.0
e 336 12 29.0
e 337 592 1.0
e 337 374 1.0
e 337 115 1.0
e 337 359 1.0
e 338 558 6.0
e 338 517 14.0
e 338 560 17.0
e 338 91 36.0
e 339 431 1.0
e 339 123 1.0
e 339 536 2.0
e 339 362 2.0
e 340 575 2.0
e 340 382 2.0
e 340 100 1.0
e 340 496 15.0
e 341 617 1.0
e 341 28 1.0
e 341 541 1.0
e 341 7 15.0
e 342 553 3.0
e 342 253 1.0
e 342 25 2.0
e 342 229 29.0
e 343 288 2.0
e 343 552 1.0
e 343 540 1.0
e 343 466 2.0
e 344 201 1.0
e 344 193 3.0
e 344 35 1.0
e 344 396 1.0
e 345 391 2.0
e 345 176 1.0
e 345 304 33.0
e 345 555 1.0
e 346 469 30.0
e 346 156 1.0
e 346 30 42.0
e 346 269 1.0
e 347 530 1.0
e 347 423 32.0
e 347 66 33.0
e 347 75 3.0
e 348 163 1.0
e 348 418 1.0
e 348 60 1.0
e 348 569 44.0
e 349 226 25.0
e 349 369 2.0
e 349 523 1.0
e 349 451 3.0
e 350 421 1.0
e 350 605 1.0
e 350 211 1.0
e 350 229 26.0
e 351 411 1.0
e 351 364 2.0
e 351 489 38.0
e 351 421 1.0
e 352 212 1.0
e 352 616 1.0
e 352 452 4.0
e 352 143 1.0
e 353 192 1.0
e 353 84 1.0
e 353 282 1.0
e 354 444 25.0
e 354 329 1.0
e 354 81 1.0
e 354 307 3.0
e 355 393 2.0
e 355 389 1.0
e 355 71 42.0
e 355 448 1.0
e 356 583 2.0
e 356 472 2.0
e 356 601 1.0
e 356 494 37.0
e 357 49 2.0
e 357 572 1.0
e 357 36 1.0
e 357 577 14.0
e 358 126 2.0
e 358 17 1.0
e 358 496 23.0
e 358 356 1.0
e 359 516 41.0
e 359 339 1.0
e 359 638 7.0
e 359 108 1.0
e 360 547 2.0
e 360 511 1.0
e 360 59 1.0
e 360 599 1.0
e 361 280 1.0
e 361 579 1.0
e 361 511 1.0
e 361 346 1.0
e 362 201 3.0
e 362 224 2.0
e 362 240 1.0
e 362 345 1.0
e 363 175 1.0
e 363 587 2.0
e 363 506 18.0
e 363 198 1.0
e 364 130 15.0
e 364 534 2.0
e 364 528 2.0
e 364 108 2.0
e 365 420 1.0
e 365 87 3.0
e 365 381 49.0
e 365 333 1.0
e 366 469 12.0
e 366 311 5.0
e 366 466 23.0
e 366 389 22.0
e 366 217 43.0
e 366 381 10.0
e 366 559 7.0
e 367 384 1.0
e 367 494 26.0
e 367 63 19.0
e 367 390 1.0
e 368 324 1.0
e 368 430 1.0
e 368 71 20.0
e 368 188 1.0
e 369 404 1.0
e 369 354 1.0
e 369 111 1.0
e 369 561 1.0
e 370 170 1.0
e 370 632 1.0
e 370 452 12.0
e 370 94 1.0
e 371 511 1.0
e 371 380 1.0
e 371 226 6.0
e 371 407 1.0
e 372 211 1.0
e 372 90 2.0
e 372 504 2.0
e 372 569 16.0
e 373 29 2.0
e 373 245 2.0
e 373 337 1.0
e 373 358 2.0
e 374 13 1.0
e 374 283 4.0
e 374 506 25.0
e 374 380 1.0
e 375 55 46.0
e 375 286 1.0
e 375 301 1.0
e 375 626 1.0
e 376 4 1.0
e 376 423 31.0
e 376 561 1.0
e 376 282 2.0
e 377 517 2.0
e 377 253 3.0
e 377 553 1.0
e 377 445 1.0
e 378 412 23.0
e 378 491 11.0
e 378 219 30.0
e 378 420 36.0
e 378 440 41.0
e 379 92 1.0
e 379 593 1.0
e 379 191 1.0
e 379 2 1.0
e 380 229 49.0
e 380 23 1.0
e 380 63 14.0
e 380 68 1.0
e 381 455 24.0
e 381 294 43.0
e 381 246 20.0
e 381 201 48.0
e 382 509 1.0
e 382 546 2.0
e 382 414 1.0
e 382 214 1.0
e 383 84 1.0
e 383 104 1.0
e 383 338 48.0
e 383 202 1.0
e 384 391 1.0
e 384 435 1.0
e 384 109 2.0
e 384 329 1.0
e 385 300 1.0
e 385 319 1.0
e 385 224 1.0
e 385 2 1.0
e 386 106 2.0
e 386 28 1.0
e 386 14 1.0
e 386 198 1.0
e 387 377 11.0
e 387 517 22.0
e 387 514 36.0
e 387 629 13.0
e 388 384 1.0
e 388 27 35.0
e 388 313 2.0
e 388 285 1.0
e 389 630 1.0
e 389 332 1.0
e 389 68 2.0
e 389 491 2.0
e 390 232 1.0
e 390 346 1.0
e 390 547 1.0
e 390 541 1.0
e 391 522 1.0
e 391 483 1.0
e 391 234 1.0
e 391 399 2.0
e 392 161 1.0
e 392 148 1.0
e 392 131 1.0
e 392 515 1.0
e 393 14 1.0
e 393 618 1.0
e 393 310 1.0
e 393 204 1.0
e 394 184 1.0
e 394 341 2.0
e 394 384 1.0
e 394 553 1.0
e 395 358 1.0
e 395 290 1.0
e 395 564 1.0
e 395 101 1.0
e 396 358 1.0
e 396 169 1.0
e 396 260 1.0
e 396 198 1.0
e 397 120 3.0
e 397 439 1.0
e 397 627 1.0
e 397 567 2.0
e 398 196 1.0
e 398 154 1.0
e 398 112 1.0
e 398 339 1.0
e 399 561 1.0
e 399 218 1.0
e 399 212 2.0
e 399 594 2.0
e 400 493 41.0
e 400 240 39.0
e 400 106 6.0
e 400 191 26.0
e 400 235 43.0
e 400 440 41.0
e 400 248 23.0
e 401 47 2.0
e 401 456 2.0
e 401 540 1.0
e 401 517 1.0
e 402 55 19.0
e 402 362 2.0
e 402 114 1.0
e 402 163 1.0
e 403 204 1.0
e 403 622 1.0
e 403 477 1.0
e 403 335 1.0
e 404 83 1.0
e 404 255 1.0
e 404 283 48.0
e 404 621 15.0
e 405 354 1.0
e 405 26 2.0
e 405 207 2.0
e 405 615 1.0
e 406 113 1.0
e 406 525 1.0
e 406 546 1.0
e 406 318 1.0
e 407 89 23.0
e 407 121 1.0
e 407 167 1.0
e 407 278 1.0
e 408 473 1.0
e 408 147 1.0
e 408 384 1.0
e 408 541 1.0
e 409 597 30.0
e 409 104 1.0
e 409 323 1.0
e 409 571 40.0
e 410 393 1.0
e 410 404 1.0
e 410 300 1.0
e 410 608 1.0
e 411 241 1.0
e 411 503 2.0
e 411 257 2.0
e 411 393 1.0
e 412 231 2.0
e 412 419 5.0
e 412 238 1.0
e 412 401 1.0
e 413 353 1.0
e 413 337 2.0
e 413 175 2.0
e 413 445 1.0
e 414 480 1.0
e 414 150 1.0
e 414 107 1.0
e 414 493 1.0
e 415 445 1.0
e 415 112 1.0
e 415 225 1.0
e 415 599 1.0
e 416 422 1.0
e 416 451 1.0
e 416 21 2.0
e 416 548 1.0
e 417 323 1.0
e 417 280 1.0
e 417 241 1.0
e 417 304 30.0
e 418 480 2.0
e 418 608 2.0
e 418 368 2.0
e 418 38 1.0
e 419 232 33.0
e 419 208 43.0
e 419 278 5.0
e 419 5 34.0
e 420 393 1.0
e 420 151 13.0
e 420 142 1.0
e 420 53 1.0
e 421 536 1.0
e 421 409 1.0
e 421 109 1.0
e 421 131 2.0
e 422 331 1.0
e 422 596 1.0
e 422 583 1.0
e 422 126 1.0
e 423 255 37.0
e 423 507 25.0
e 423 59 31.0
e 423 415 29.0
e 424 100 1.0
e 424 39 40.0
e 424 267 1.0
e 424 320 1.0
e 425 73 1.0
e 425 386 1.0
e 425 531 2.0
e 425 584 2.0
e 426 144 1.0
e 426 419 9.0
e 426 277 12.0
e 426 269 1.0
e 427 24 35.0
e 427 448 34.0
e 427 385 4.0
e 427 420 19.0
e 428 371 1.0
e 428 386 1.0
e 428 515 1.0
e 428 201 1.0
e 429 370 11.0
e 429 506 16.0
e 429 304 41.0
e 429 122 9.0
e 430 369 2.0
e 430 7 26.0
e 430 146 1.0
e 430 393 1.0
e 431 185 1.0
e 431 356 1.0
e 431 262 1.0
e 431 189 1.0
e 432 530 1.0
e 432 616 2.0
e 432 71 9.0
e 432 267 1.0
e 433 533 1.0
e 433 207 2.0
e 433 30 39.0
e 433 544 1.0
e 434 438 15.0
e 434 407 20.0
e 434 272 27.0
e 434 397 32.0
e 435 153 1.0
e 435 23 1.0
e 435 595 33.0
e 435 157 1.0
e 436 272 1.0
e 436 91 1.0
e 436 330 2.0
e 436 262 2.0
e 437 223 2.0
e 437 276 1.0
e 437 105 2.0
e 437 370 2.0
e 438 323 1.0
e 438 143 1.0
e 438 269 1.0
e 438 26 1.0
e 439 232 1.0
e 439 128 49.0
e 439 195 1.0
e 439 103 1.0
e 440 174 7.0
e 440 331 36.0
e 440 165 24.0
e 440 87 41.0
e 441 127 1.0
e 441 191 1.0
e 441 439 1.0
e 441 425 1.0
e 442 15 1.0
e 442 246 1.0
e 442 81 1.0
e 442 540 1.0
e 443 88 1.0
e 443 625 2.0
e 443 466 3.0
e 443 185 1.0
e 444 27 33.0
e 444 495 4.0
e 444 215 29.0
e 444 373 22.0
e 445 301 2.0
e 445 266 2.0
e 445 276 2.0
e 445 500 2.0
e 446 227 34.0
e 446 246 31.0
e 446 424 10.0
e 446 501 27.0
e 446 506 26.0
e 446 496 18.0
e 447 638 43.0
e 447 271 2.0
e 447 523 1.0
e 447 359 1.0
e 448 143 1.0
e 448 7 42.0
e 448 387 2.0
e 448 431 1.0
e 449 335 1.0
e 449 279 1.0
e 449 619 1.0
e 449 137 1.0
e 450 518 2.0
e 450 505 1.0
e 450 376 1.0
e 450 437 1.0
e 451 354 1.0
e 451 297 1.0
e 451 22 1.0
e 451 567 1.0
e 452 164 25.0
e 452 638 12.0
e 452 142 2.0
e 452 125 35.0
e 453 27 16.0
e 453 338 7.0
e 453 8 1.0
e 453 268 1.0
e 454 386 1.0
e 454 257 1.0
e 454 583 1.0
e 454 92 1.0
e 455 603 25.0
e 455 168 1.0
e 455 450 1.0
e 455 557 1.0
e 456 414 1.0
e 456 268 2.0
e 456 376 2.0
e 456 31 1.0
e 457 540 1.0
e 457 631 1.0
e 457 182 3.0
e 457 500 1.0
e 458 445 1.0
e 458 102 2.0
e 458 433 1.0
e 458 111 1.0
e 459 40 1.0
e 459 269 1.0
e 459 593 1.0
e 459 278 1.0
e 460 523 1.0
e 460 577 28.0
e 460 292 2.0
e 460 28 1.0
e 461 322 24.0
e 461 6 1.0
e 461 207 1.0
e 461 578 2.0
e 462 11 1.0
e 462 468 2.0
e 462 458 1.0
e 462 151 42.0
e 463 128 18.0
e 463 275 1.0
e 463 462 1.0
e 463 231 2.0
e 464 347 1.0
e 464 461 1.0
e 464 366 35.0
e 464 211 1.0
e 465 514 2.0
e 465 470 1.0
e 465 49 1.0
e 465 244 1.0
e 466 468 1.0
e 466 444 19.0
e 466 257 1.0
e 467 123 6.0
e 467 606 43.0
e 467 564 7.0
e 467 425 17.0
e 467 440 31.0
e 467 378 19.0
e 467 577 15.0
e 467 381 30.0
e 468 225 1.0
e 468 269 2.0
e 468 329 1.0
e 468 6 1.0
e 469 448 4.0
e 469 624 10.0
e 469 343 30.0
e 469 581 31.0
e 469 226 21.0
e 470 571 42.0
e 470 412 1.0
e 470 277 45.0
e 470 178 1.0
e 471 102 1.0
e 471 342 2.0
e 471 568 1.0
e 471 224 2.0
e 472 264 1.0
e 472 152 17.0
e 472 146 1.0
e 472 503 1.0
e 473 64 1.0
e 473 371 1.0
e 473 607 1.0
e 473 529 2.0
e 474 471 1.0
e 474 387 32.0
e 474 432 2.0
e 474 172 2.0
e 475 368 1.0
e 475 491 1.0
e 475 279 1.0
e 475 586 1.0
e 476 551 1.0
e 476 358 1.0
e 476 275 3.0
e 476 412 1.0
e 477 373 1.0
e 477 55 41.0
e 477 318 1.0
e 477 2 1.0
e 478 110 1.0
e 478 355 2.0
e 478 525 2.0
e 478 587 1.0
e 479 460 1.0
e 479 346 1.0
e 479 330 1.0
e 479 602 2.0
e 480 89 47.0
e 480 553 2.0
e 480 324 1.0
e 480 117 3.0
e 481 316 1.0
e 481 412 1.0
e 481 208 1.0
e 481 282 1.0
e 482 157 1.0
e 482 226 2.0
e 482 511 1.0
e 482 520 1.0
e 483 277 25.0
e 483 433 1.0
e 483 214 1.0
e 483 445 2.0
e 484 54 1.0
e 484 275 1.0
e 484 545 1.0
e 484 605 1.0
e 485 512 1.0
e 485 104 1.0
e 485 435 1.0
e 485 167 1.0
e 486 231 1.0
e 486 88 30.0
e 486 219 2.0
e 486 508 1.0
e 487 137 1.0
e 487 200 1.0
e 487 271 2.0
e 487 274 1.0
e 488 421 1.0
e 488 123 1.0
e 488 446 38.0
e 488 595 32.0
e 489 261 12.0
e 489 281 35.0
e 489 209 2.0
e 489 265 17.0
e 490 613 2.0
e 490 194 1.0
e 490 527 2.0
e 490 59 2.0
e 491 361 1.0
e 491 515 1.0
e 491 511 1.0
e 492 368 49.0
e 492 132 45.0
e 492 142 16.0
e 492 369 14.0
e 492 63 32.0
e 492 251 3.0
e 493 221 32.0
e 493 284 1.0
e 493 535 1.0
e 493 304 29.0
e 494 445 35.0
e 494 553 7.0
e 494 588 10.0
e 494 99 33.0
e 495 246 1.0
e 495 294 13.0
e 495 606 1.0
e 495 181 1.0
e 496 207 2.0
e 496 348 31.0
e 496 477 34.0
e 496 478 8.0
e 496 277 10.0
e 497 156 1.0
e 497 326 1.0
e 497 256 1.0
e 497 315 1.0
e 498 620 1.0
e 498 631 1.0
e 498 526 2.0
e 498 212 1.0
e 499 621 8.0
e 499 618 15.0
e 499 42 46.0
e 499 194 10.0
e 500 76 1.0
e 500 384 1.0
e 500 21 1.0
e 500 1 2.0
e 501 578 3.0
e 501 80 1.0
e 501 75 27.0
e 501 414 1.0
e 502 531 2.0
e 502 368 2.0
e 502 183 34.0
e 502 211 3.0
e 503 202 1.0
e 503 276 1.0
e 503 409 1.0
e 503 147 1.0
e 504 88 20.0
e 504 617 1.0
e 504 342 1.0
e 504 591 1.0
e 505 177 2.0
e 505 82 2.0
e 505 473 3.0
e 505 521 1.0
e 506 627 48.0
e 506 291 30.0
e 506 136 47.0
e 506 495 17.0
e 507 542 25.0
e 507 184 23.0
e 507 117 8.0
e 507 165 31.0
e 508 554 17.0
e 508 630 1.0
e 508 117 1.0
e 509 405 2.0
e 509 75 34.0
e 509 442 1.0
e 509 528 1.0
e 510 39 12.0
e 510 13 1.0
e 510 497 1.0
e 510 207 1.0
e 511 534 1.0
e 511 560 3.0
e 511 614 3.0
e 511 546 2.0
e 512 296 3.0
e 512 81 1.0
e 512 516 5.0
e 513 250 2.0
e 513 292 1.0
e 513 10 2.0
e 513 45 16.0
e 514 299 1.0
e 514 188 1.0
e 514 244 1.0
e 514 346 2.0
e 515 498 1.0
e 515 234 2.0
e 515 235 7.0
e 515 446 7.0
e 516 350 6.0
e 516 472 24.0
e 516 627 29.0
e 516 67 23.0
e 516 444 5.0
e 517 422 1.0
e 517 258 1.0
e 517 163 1.0
e 517 59 1.0
e 518 598 1.0
e 518 100 1.0
e 518 454 1.0
e 518 630 1.0
e 519 89 22.0
e 519 617 2.0
e 519 507 4.0
e 519 468 1.0
e 520 488 1.0
e 520 106 1.0
e 520 302 1.0
e 520 309 1.0
e 521 74 2.0
e 521 565 1.0
e 521 19 1.0
e 521 618 1.0
e 522 154 1.0
e 522 612 1.0
e 522 388 1.0
e 522 283 49.0
e 523 552 1.0
e 523 256 1.0
e 523 398 1.0
e 523 144 1.0
e 524 606 44.0
e 524 330 48.0
e 524 253 9.0
e 524 84 26.0
e 524 261 47.0
e 524 308 14.0
e 524 506 32.0
e 524 597 47.0
e 525 542 1.0
e 525 552 1.0
e 525 574 1.0
e 525 360 1.0
e 526 82 1.0
e 526 367 1.0
e 526 587 1.0
e 526 550 1.0
e 527 407 1.0
e 527 442 1.0
e 527 332 1.0
e 527 235 10.0
e 528 417 3.0
e 528 489 31.0
e 528 543 1.0
e 528 246 1.0
e 529 406 1.0
e 529 269 1.0
e 529 633 1.0
e 529 185 1.0
e 530 162 13.0
e 530 243 2.0
e 530 362 1.0
e 530 521 1.0
e 531 397 1.0
e 531 372 2.0
e 531 580 1.0
e 531 109 1.0
e 532 298 2.0
e 532 397 2.0
e 532 328 2.0
e 532 316 1.0
e 533 552 1.0
e 533 470 1.0
e 533 546 1.0
e 533 380 1.0
e 534 249 1.0
e 534 234 2.0
e 534 105 1.0
e 534 31 1.0
e 535 362 1.0
e 535 86 2.0
e 535 323 1.0
e 535 602 3.0
e 536 546 2.0
e 536 461 1.0
e 536 189 1.0
e 536 420 1.0
e 537 255 1.0
e 537 630 1.0
e 537 260 1.0
e 537 176 1.0
e 538 511 1.0
e 538 376 1.0
e 538 95 1.0
e 538 209 1.0
e 539 436 1.0
e 539 111 1.0
e 539 276 1.0
e 539 584 1.0
e 540 619 1.0
e 540 361 1.0
e 540 427 17.0
e 540 482 2.0
e 541 236 1.0
e 541 141 3.0
e 541 117 2.0
e 541 158 2.0
e 542 313 2.0
e 542 274 1.0
e 542 91 1.0
e 542 574 2.0
e 543 436 1.0
e 543 354 2.0
e 543 355 2.0
e 543 380 1.0
e 544 475 1.0
e 544 474 1.0
e 544 391 1.0
e 544 109 1.0
e 545 171 1.0
e 545 11 1.0
e 545 23 2.0
e 545 459 1.0
e 546 245 1.0
e 546 125 1.0
e 546 545 1.0
e 546 130 47.0
e 547 626 1.0
e 547 318 1.0
e 547 20 1.0
e 548 68 1.0
e 548 290 1.0
e 548 605 1.0
e 548 244 1.0
e 549 508 2.0
e 549 115 1.0
e 549 493 1.0
e 549 251 40.0
e 550 155 1.0
e 550 221 15.0
e 550 33 9.0
e 550 447 2.0
e 551 287 41.0
e 551 113 1.0
e 551 139 2.0
e 551 227 2.0
e 552 330 3.0
e 552 202 1.0
e 552 546 3.0
e 552 283 19.0
e 553 622 1.0
e 553 360 1.0
e 553 198 1.0
e 553 72 2.0
e 554 541 27.0
e 554 388 45.0
e 554 221 8.0
e 554 13 21.0
e 554 45 34.0
e 555 186 13.0
e 555 504 1.0
e 555 118 2.0
e 555 162 36.0
e 556 152 49.0
e 556 544 1.0
e 556 220 2.0
e 556 296 1.0
e 557 617 1.0
e 557 625 1.0
e 557 531 1.0
e 557 432 1.0
e 558 508 1.0
e 558 265 1.0
e 558 130 11.0
e 558 39 34.0
e 559 552 3.0
e 559 606 29.0
e 559 494 42.0
e 559 210 27.0
e 559 400 46.0
e 560 421 1.0
e 560 63 46.0
e 560 129 1.0
e 560 221 28.0
e 561 263 1.0
e 561 79 1.0
e 561 614 1.0
e 561 610 1.0
e 562 200 28.0
e 562 416 18.0
e 562 477 47.0
e 562 119 33.0
e 562 446 7.0
e 563 270 1.0
e 563 233 1.0
e 563 6 1.0
e 563 146 1.0
e 564 71 17.0
e 564 476 2.0
e 564 6 1.0
e 564 209 1.0
e 565 456 1.0
e 565 244 2.0
e 565 184 1.0
e 565 50 1.0
e 566 369 2.0
e 566 529 1.0
e 566 410 1.0
e 566 468 1.0
e 567 138 1.0
e 567 252 1.0
e 567 223 3.0
e 567 349 2.0
e 568 206 1.0
e 568 233 1.0
e 568 504 1.0
e 568 363 1.0
e 569 54 4.0
e 569 433 33.0
e 569 350 12.0
e 569 130 6.0
e 569 66 34.0
e 570 50 1.0
e 570 63 12.0
e 570 44 1.0
e 570 369 1.0
e 571 568 24.0
e 571 77 15.0
e 571 86 35.0
e 571 422 13.0
e 572 175 1.0
e 572 92 1.0
e 572 3 1.0
e 572 139 1.0
e 573 412 1.0
e 573 240 1.0
e 573 329 1.0
e 573 599 1.0
e 574 513 1.0
e 574 213 3.0
e 574 613 1.0
e 575 215 2.0
e 575 294 16.0
e 575 195 1.0
e 575 31 1.0
e 576 184 1.0
e 576 444 23.0
e 576 482 1.0
e 576 192 1.0
e 577 436 6.0
e 577 26 46.0
e 577 24 34.0
e 577 320 17.0
e 578 406 2.0
e 578 284 1.0
e 578 442 1.0
e 578 89 45.0
e 579 429 2.0
e 579 121 1.0
e 579 363 2.0
e 579 178 2.0
e 580 434 18.0
e 580 397 2.0
e 580 103 1.0
e 580 484 1.0
e 581 303 2.0
e 581 443 2.0
e 581 266 1.0
e 581 361 1.0
e 582 218 1.0
e 582 407 2.0
e 582 346 2.0
e 582 540 1.0
e 583 585 1.0
e 583 23 1.0
e 583 14 1.0
e 583 317 1.0
e 584 79 1.0
e 584 6 1.0
e 584 157 1.0
e 584 526 1.0
e 585 246 1.0
e 585 442 1.0
e 585 556 1.0
e 585 349 2.0
e 586 222 1.0
e 586 187 1.0
e 586 160 1.0
e 586 223 1.0
e 587 201 1.0
e 587 481 1.0
e 587 574 2.0
e 587 561 1.0
e 588 474 3.0
e 588 413 1.0
e 588 367 1.0
e 588 301 1.0
e 589 40 1.0
e 589 8 1.0
e 589 616 1.0
e 589 198 1.0
e 590 274 1.0
e 590 390 2.0
e 590 488 1.0
e 590 627 1.0
e 591 305 1.0
e 591 192 1.0
e 591 61 1.0
e 591 380 1.0
e 592 142 1.0
e 592 83 1.0
e 592 140 1.0
e 592 109 1.0
e 593 548 1.0
e 593 322 12.0
e 593 315 1.0
e 593 586 2.0
e 594 61 1.0
e 594 472 2.0
e 594 363 1.0
e 594 603 24.0
e 595 618 30.0
e 595 493 34.0
e 595 110 14.0
e 595 303 46.0
e 596 87 1.0
e 596 360 1.0
e 596 44 1.0
e 596 41 2.0
e 597 110 26.0
e 597 371 3.0
e 597 61 34.0
e 597 413 48.0
e 598 25 1.0
e 598 37 1.0
e 598 361 1.0
e 598 315 1.0
e 599 527 1.0
e 599 214 1.0
e 599 512 1.0
e 599 208 1.0
e 600 375 2.0
e 600 251 44.0
e 600 479 1.0
e 600 623 45.0
e 601 76 1.0
e 601 507 16.0
e 601 617 2.0
e 601 141 2.0
e 602 388 1.0
e 602 193 1.0
e 602 507 41.0
e 603 580 6.0
e 603 619 40.0
e 603 558 9.0
e 603 166 34.0
e 604 235 32.0
e 604 511 2.0
e 604 8 1.0
e 604 43 2.0
e 605 51 1.0
e 605 28 1.0
e 605 598 1.0
e 605 560 1.0
e 606 144 1.0
e 606 283 12.0
e 606 531 1.0
e 606 325 1.0
e 607 95 1.0
e 607 536 1.0
e 607 531 1.0
e 607 172 1.0
e 608 234 1.0
e 608 509 2.0
e 608 192 1.0
e 608 74 2.0
e 609 435 3.0
e 609 542 1.0
e 609 375 2.0
e 609 160 1.0
e 610 560 1.0
e 610 638 21.0
e 610 298 1.0
e 610 563 1.0
e 611 459 1.0
e 611 47 2.0
e 611 25 1.0
e 611 146 1.0
e 612 311 2.0
e 612 90 1.0
e 612 55 26.0
e 612 435 1.0
e 613 208 1.0
e 613 112 1.0
e 613 320 2.0
e 613 526 1.0
e 614 360 2.0
e 614 218 2.0
e 614 308 36.0
e 614 115 1.0
e 615 219 2.0
e 615 618 2.0
e 615 178 1.0
e 615 389 2.0
e 616 91 1.0
e 616 590 3.0
e 616 132 1.0
e 616 71 49.0
e 617 627 2.0
e 617 46 2.0
e 617 387 23.0
e 617 206 2.0
e 618 178 2.0
e 618 166 1.0
e 618 347 1.0
e 618 104 1.0
e 619 331 1.0
e 619 205 1.0
e 619 592 1.0
e 619 30 6.0
e 620 555 1.0
e 620 427 15.0
e 620 455 1.0
e 620 429 9.0
e 621 480 27.0
e 621 230 39.0
e 621 476 49.0
e 621 97 30.0
e 621 321 11.0
e 621 322 32.0
e 621 467 49.0
e 622 544 1.0
e 622 336 9.0
e 622 314 1.0
e 622 358 2.0
e 623 606 43.0
e 623 360 3.0
e 623 122 7.0
e 623 504 10.0
e 623 577 33.0
e 623 336 32.0
e 623 338 4.0
e 624 522 1.0
e 624 56 1.0
e 624 72 1.0
e 624 197 1.0
e 625 609 1.0
e 625 559 42.0
e 625 340 1.0
e 625 584 1.0
e 626 581 1.0
e 626 156 1.0
e 626 387 26.0
e 626 244 2.0
e 627 180 1.0
e 627 494 2.0
e 627 417 3.0
e 627 185 3.0
e 628 545 2.0
e 628 393 1.0
e 628 638 46.0
e 628 30 46.0
e 629 243 1.0
e 629 346 1.0
e 629 143 1.0
e 629 173 2.0
e 630 571 34.0
e 630 40 1.0
e 630 574 2.0
e 630 202 1.0
e 631 391 1.0
e 631 601 3.0
e 631 332 1.0
e 631 537 1.0
e 632 248 13.0
e 632 633 1.0
e 632 587 1.0
e 632 624 1.0
e 633 374 1.0
e 633 576 1.0
e 633 232 1.0
e 633 579 1.0
e 634 35 1.0
e 634 15 1.0
e 634 570 1.0
e 634 27 49.0
e 635 411 3.0
e 635 583 1.0
e 635 65 1.0
e 635 414 1.0
e 636 192 1.0
e 636 296 2.0
e 636 213 1.0
e 636 145 1.0
e 637 474 1.0
e 637 600 1.0
e 637 242 1.0
e 637 532 1.0
e 638 174 35.0
e 638 75 46.0
e 638 550 18.0
e 638 97 14.0
e 639 385 2.0
e 639 213 1.0
e 639 40 1.0
e 639 613 2.0
